33D32945 STP File, STP Format Version 1.0

SECTION Comments
Name "inst10x3_03"
Creator "Kurt Anstreicher & Marcia Fampa"
Problem "Euclidean Steiner Tree Problem"
Remark "Converted automatically"
END

SECTION Graph
Nodes 10
END

SECTION Coordinates
DDD 1 1.21047113036414 4.50753940979387 7.15882948172974 
DDD 2 8.92841608145753 2.73102470225142 2.54769295562283 
DDD 3 8.65603477744752 2.32350370627532 8.04871744115706 
DDD 4 9.08397543448518 2.31894318112325 2.39312564468985 
DDD 5 0.49754484071250 0.78384074770045 6.40815409870017 
DDD 6 1.90886570397560 8.43869498874358 1.73900248461784 
DDD 7 1.70792813741680 9.94295490513920 4.39790856946380 
DDD 8 3.40047948855690 3.14217310544029 3.65078386928670 
DDD 9 3.93239551206458 5.91525203746446 1.19746616951808 
DDD 10 0.38128796767371 4.58597954664957 8.69867350407008 
END

EOF
